
ACE v2.1 

  instance
    name:PyCSP

  Loading variables...

  Loading constraints...

  domains
    types:1  values:128  sizes:[2:64]
  variables
    count:64  arrays:1  degrees:[52:4,53:24,54:36]
  constraints
    count:806  specific:22  groups:2  arities:[4:784,8:8,16:14]
    distribution:[Cardinality:8,ConstraintIntension:784,LexicographicLE:14]
    intStructures:(1,shared:783)
    wck:1.04  cpu:1.406  mem:73M17

  Building solver... 

  solver
    guaranteedAC:true
    wck:1.12  cpu:1.421  mem:75M695

  preprocessing
    revisions:(3136,useless=3136)  values:128  unsat:false
    wck:0.017  cpu:1.421  mem:75M695

    run0  dpts:0..4  effs:28  fails:1  wrgs:6  wck:0.00

  global
    effs:28  revisions:(6235,useless=6227)
    stop:FULL_EXPLORATION  wrgs:6
    wck:1.17  cpu:1.437  mem:75M878

s UNSATISFIABLE

d WRONG DECISIONS 6
d FOUND SOLUTIONS 0
d COMPLETE EXPLORATION

c real time : 1.437
